c User generated cnf file
p cnf 15 21
9 -9 13 0 
11 -12 14 0 
6 -8 10 0 
11 14 -3 0 
14 -10 15 0 
10 -10 11 0 
4 9 -11 0 
15 -12 1 0 
11 15 -5 0 
4 12 -1 0 
10 -12 4 0 
3 -14 6 0 
2 -9 2 0 
11 -5 8 0 
6 -3 12 0 
10 13 -15 0 
6 -12 2 0 
3 -7 12 0 
15 -15 6 0 
8 -4 12 0 
8 -1 2 0 
